tsp_instances/TSP50/instance121.tsp
NODE_COORD_SECTION
0 115 196
1 91 200
2 141 161
3 32 200
4 188 96
5 38 3
6 21 84
7 162 144
8 123 142
9 122 42
10 180 14
11 109 93
12 196 129
13 190 78
14 52 22
15 104 200
16 59 90
17 149 99
18 176 61
19 18 125
20 177 38
21 72 120
22 29 200
23 178 81
24 138 93
25 17 122
26 90 200
27 121 26
28 166 39
29 200 102
30 130 144
31 146 180
32 132 154
33 136 95
34 158 116
35 148 1
36 120 95
37 176 155
38 130 80
39 72 193
40 70 105
41 191 196
42 7 10
43 78 40
44 73 40
45 90 184
46 33 145
47 129 171
48 27 119
49 105 128
