tsp_instances/TSP50/instance121.opt.tour
TOUR_SECTION
1
16
2
27
46
40
4
23
47
20
26
49
22
41
17
7
43
6
15
45
44
10
28
36
11
21
29
19
24
14
5
30
13
35
18
34
25
39
37
12
50
9
31
33
3
8
38
42
32
48
-1